c *********************************
c * Circuit generated by BenCGen
c *
c * CarrySaveAdder_9_9_9_9_10
c *
c * Ports with 1 gate(s): 2
c * Ports with 2 gate(s): 46
c * Total gates: 48
c *********************************
p cnf 75 160
1 48 0
-1 -48 0
1 -47 0
48 -47 0
-1 -48 47 0
47 -37 0
-47 37 0
1 10 -49 0
-1 10 49 0
1 -10 49 0
-1 -10 -49 0
49 19 -28 0
-49 19 28 0
49 -19 28 0
-49 -19 -28 0
19 -50 0
49 -50 0
-19 -49 50 0
10 -51 0
1 -51 0
-10 -1 51 0
-50 38 0
-51 38 0
50 51 -38 0
2 11 -52 0
-2 11 52 0
2 -11 52 0
-2 -11 -52 0
52 20 -29 0
-52 20 29 0
52 -20 29 0
-52 -20 -29 0
20 -53 0
52 -53 0
-20 -52 53 0
11 -54 0
2 -54 0
-11 -2 54 0
-53 39 0
-54 39 0
53 54 -39 0
3 12 -55 0
-3 12 55 0
3 -12 55 0
-3 -12 -55 0
55 21 -30 0
-55 21 30 0
55 -21 30 0
-55 -21 -30 0
21 -56 0
55 -56 0
-21 -55 56 0
12 -57 0
3 -57 0
-12 -3 57 0
-56 40 0
-57 40 0
56 57 -40 0
4 13 -58 0
-4 13 58 0
4 -13 58 0
-4 -13 -58 0
58 22 -31 0
-58 22 31 0
58 -22 31 0
-58 -22 -31 0
22 -59 0
58 -59 0
-22 -58 59 0
13 -60 0
4 -60 0
-13 -4 60 0
-59 41 0
-60 41 0
59 60 -41 0
5 14 -61 0
-5 14 61 0
5 -14 61 0
-5 -14 -61 0
61 23 -32 0
-61 23 32 0
61 -23 32 0
-61 -23 -32 0
23 -62 0
61 -62 0
-23 -61 62 0
14 -63 0
5 -63 0
-14 -5 63 0
-62 42 0
-63 42 0
62 63 -42 0
6 15 -64 0
-6 15 64 0
6 -15 64 0
-6 -15 -64 0
64 24 -33 0
-64 24 33 0
64 -24 33 0
-64 -24 -33 0
24 -65 0
64 -65 0
-24 -64 65 0
15 -66 0
6 -66 0
-15 -6 66 0
-65 43 0
-66 43 0
65 66 -43 0
7 16 -67 0
-7 16 67 0
7 -16 67 0
-7 -16 -67 0
67 25 -34 0
-67 25 34 0
67 -25 34 0
-67 -25 -34 0
25 -68 0
67 -68 0
-25 -67 68 0
16 -69 0
7 -69 0
-16 -7 69 0
-68 44 0
-69 44 0
68 69 -44 0
8 17 -70 0
-8 17 70 0
8 -17 70 0
-8 -17 -70 0
70 26 -35 0
-70 26 35 0
70 -26 35 0
-70 -26 -35 0
26 -71 0
70 -71 0
-26 -70 71 0
17 -72 0
8 -72 0
-17 -8 72 0
-71 45 0
-72 45 0
71 72 -45 0
9 18 -73 0
-9 18 73 0
9 -18 73 0
-9 -18 -73 0
73 27 -36 0
-73 27 36 0
73 -27 36 0
-73 -27 -36 0
27 -74 0
73 -74 0
-27 -73 74 0
18 -75 0
9 -75 0
-18 -9 75 0
-74 46 0
-75 46 0
74 75 -46 0
